p cnf 1117 2357
c 454 in(a77)
c 456 in(a76)
c 458 in(a79)
c 460 in(a120)
c 462 in(a78)
c 464 in(a121)
c 466 in(a80)
c 468 in(a126)
c 470 in(a127)
c 472 in(a82)
c 474 in(a128)
c 476 in(a81)
c 478 in(a129)
c 480 in(a84)
c 482 in(a122)
c 484 in(a83)
c 486 in(a123)
c 488 in(a86)
c 490 in(a124)
c 492 in(a85)
c 494 in(a125)
c 496 in(a88)
c 498 in(a87)
c 500 in(a89)
c 502 in(a110)
c 504 in(a119)
c 506 in(a91)
c 508 in(a115)
c 510 in(a90)
c 512 in(a116)
c 514 in(a93)
c 516 in(a117)
c 518 in(a92)
c 520 in(a118)
c 522 in(a95)
c 524 in(a111)
c 526 in(a94)
c 528 in(a112)
c 530 in(a97)
c 532 in(a113)
c 534 in(a96)
c 536 in(a114)
c 538 in(a11)
c 540 in(a99)
c 542 in(a140)
c 544 in(a10)
c 546 in(a98)
c 548 in(a141)
c 550 in(a13)
c 552 in(a142)
c 554 in(a12)
c 556 in(a143)
c 558 in(a15)
c 560 in(a14)
c 562 in(a17)
c 564 in(a16)
c 566 in(a19)
c 568 in(a18)
c 570 in(a148)
c 572 in(a149)
c 574 in(a144)
c 576 in(a145)
c 578 in(a20)
c 580 in(a146)
c 582 in(a147)
c 584 in(a22)
c 586 in(a21)
c 588 in(a130)
c 590 in(a24)
c 592 in(a131)
c 594 in(a23)
c 596 in(a132)
c 598 in(a26)
c 600 in(a25)
c 602 in(a28)
c 604 in(a27)
c 606 in(a29)
c 608 in(a137)
c 610 in(a138)
c 612 in(a139)
c 614 in(a133)
c 616 in(a134)
c 618 in(a31)
c 620 in(a135)
c 622 in(a30)
c 624 in(a136)
c 626 in(a33)
c 628 in(a162)
c 630 in(a32)
c 632 in(a163)
c 634 in(a35)
c 636 in(a34)
c 638 in(a37)
c 640 in(a36)
c 642 in(a39)
c 644 in(a160)
c 646 in(a38)
c 648 in(a161)
c 650 in(a40)
c 652 in(a42)
c 654 in(a41)
c 656 in(a44)
c 658 in(a151)
c 660 in(a43)
c 662 in(a152)
c 664 in(a46)
c 666 in(a153)
c 668 in(a45)
c 670 in(a154)
c 672 in(a48)
c 674 in(a47)
c 676 in(a49)
c 678 in(a150)
c 680 in(a159)
c 682 in(a51)
c 684 in(a155)
c 686 in(a50)
c 688 in(a156)
c 690 in(a53)
c 692 in(a157)
c 694 in(a52)
c 696 in(a158)
c 698 in(a55)
c 700 in(a54)
c 702 in(a57)
c 704 in(a56)
c 706 in(a59)
c 708 in(a58)
c 710 in(a108)
c 712 in(a109)
c 714 in(a104)
c 716 in(a105)
c 718 in(a60)
c 720 in(a106)
c 722 in(a107)
c 724 in(a62)
c 726 in(a100)
c 728 in(a61)
c 730 in(a101)
c 732 in(a64)
c 734 in(a102)
c 736 in(a63)
c 738 in(a103)
c 740 in(a66)
c 742 in(a65)
c 744 in(a68)
c 746 in(a67)
c 748 in(a69)
c 750 in(a0)
c 752 in(a1)
c 754 in(a2)
c 756 in(a3)
c 758 in(a4)
c 760 in(a5)
c 762 in(a6)
c 764 in(a7)
c 766 in(a8)
c 768 in(a9)
c 770 in(a71)
c 772 in(a70)
c 774 in(a73)
c 776 in(a72)
c 778 in(a75)
c 780 in(a74)
453 454 0
-453 -454 0
455 456 0
-455 -456 0
457 458 0
-457 -458 0
459 460 0
-459 -460 0
461 462 0
-461 -462 0
463 464 0
-463 -464 0
465 466 0
-465 -466 0
467 468 0
-467 -468 0
469 470 0
-469 -470 0
471 472 0
-471 -472 0
473 474 0
-473 -474 0
475 476 0
-475 -476 0
477 478 0
-477 -478 0
479 480 0
-479 -480 0
481 482 0
-481 -482 0
483 484 0
-483 -484 0
485 486 0
-485 -486 0
487 488 0
-487 -488 0
489 490 0
-489 -490 0
491 492 0
-491 -492 0
493 494 0
-493 -494 0
495 496 0
-495 -496 0
497 498 0
-497 -498 0
499 500 0
-499 -500 0
501 502 0
-501 -502 0
503 504 0
-503 -504 0
505 506 0
-505 -506 0
507 508 0
-507 -508 0
509 510 0
-509 -510 0
511 512 0
-511 -512 0
513 514 0
-513 -514 0
515 516 0
-515 -516 0
517 518 0
-517 -518 0
519 520 0
-519 -520 0
521 522 0
-521 -522 0
523 524 0
-523 -524 0
525 526 0
-525 -526 0
527 528 0
-527 -528 0
529 530 0
-529 -530 0
531 532 0
-531 -532 0
533 534 0
-533 -534 0
535 536 0
-535 -536 0
537 538 0
-537 -538 0
539 540 0
-539 -540 0
541 542 0
-541 -542 0
543 544 0
-543 -544 0
545 546 0
-545 -546 0
547 548 0
-547 -548 0
549 550 0
-549 -550 0
551 552 0
-551 -552 0
553 554 0
-553 -554 0
555 556 0
-555 -556 0
557 558 0
-557 -558 0
559 560 0
-559 -560 0
561 562 0
-561 -562 0
563 564 0
-563 -564 0
565 566 0
-565 -566 0
567 568 0
-567 -568 0
569 570 0
-569 -570 0
571 572 0
-571 -572 0
573 574 0
-573 -574 0
575 576 0
-575 -576 0
577 578 0
-577 -578 0
579 580 0
-579 -580 0
581 582 0
-581 -582 0
583 584 0
-583 -584 0
585 586 0
-585 -586 0
587 588 0
-587 -588 0
589 590 0
-589 -590 0
591 592 0
-591 -592 0
593 594 0
-593 -594 0
595 596 0
-595 -596 0
597 598 0
-597 -598 0
599 600 0
-599 -600 0
601 602 0
-601 -602 0
603 604 0
-603 -604 0
605 606 0
-605 -606 0
607 608 0
-607 -608 0
609 610 0
-609 -610 0
611 612 0
-611 -612 0
613 614 0
-613 -614 0
615 616 0
-615 -616 0
617 618 0
-617 -618 0
619 620 0
-619 -620 0
621 622 0
-621 -622 0
623 624 0
-623 -624 0
625 626 0
-625 -626 0
627 628 0
-627 -628 0
629 630 0
-629 -630 0
631 632 0
-631 -632 0
633 634 0
-633 -634 0
635 636 0
-635 -636 0
637 638 0
-637 -638 0
639 640 0
-639 -640 0
641 642 0
-641 -642 0
643 644 0
-643 -644 0
645 646 0
-645 -646 0
647 648 0
-647 -648 0
649 650 0
-649 -650 0
651 652 0
-651 -652 0
653 654 0
-653 -654 0
655 656 0
-655 -656 0
657 658 0
-657 -658 0
659 660 0
-659 -660 0
661 662 0
-661 -662 0
663 664 0
-663 -664 0
665 666 0
-665 -666 0
667 668 0
-667 -668 0
669 670 0
-669 -670 0
671 672 0
-671 -672 0
673 674 0
-673 -674 0
675 676 0
-675 -676 0
677 678 0
-677 -678 0
679 680 0
-679 -680 0
681 682 0
-681 -682 0
683 684 0
-683 -684 0
685 686 0
-685 -686 0
687 688 0
-687 -688 0
689 690 0
-689 -690 0
691 692 0
-691 -692 0
693 694 0
-693 -694 0
695 696 0
-695 -696 0
697 698 0
-697 -698 0
699 700 0
-699 -700 0
701 702 0
-701 -702 0
703 704 0
-703 -704 0
705 706 0
-705 -706 0
707 708 0
-707 -708 0
709 710 0
-709 -710 0
711 712 0
-711 -712 0
713 714 0
-713 -714 0
715 716 0
-715 -716 0
717 718 0
-717 -718 0
719 720 0
-719 -720 0
721 722 0
-721 -722 0
723 724 0
-723 -724 0
725 726 0
-725 -726 0
727 728 0
-727 -728 0
729 730 0
-729 -730 0
731 732 0
-731 -732 0
733 734 0
-733 -734 0
735 736 0
-735 -736 0
737 738 0
-737 -738 0
739 740 0
-739 -740 0
741 742 0
-741 -742 0
743 744 0
-743 -744 0
745 746 0
-745 -746 0
747 748 0
-747 -748 0
749 750 0
-749 -750 0
751 752 0
-751 -752 0
753 754 0
-753 -754 0
755 756 0
-755 -756 0
757 758 0
-757 -758 0
759 760 0
-759 -760 0
761 762 0
-761 -762 0
763 764 0
-763 -764 0
765 766 0
-765 -766 0
767 768 0
-767 -768 0
769 770 0
-769 -770 0
771 772 0
-771 -772 0
773 774 0
-773 -774 0
775 776 0
-775 -776 0
777 778 0
-777 -778 0
779 780 0
-779 -780 0
454 453 0
-454 -453 0
456 455 0
-456 -455 0
458 457 0
-458 -457 0
460 459 0
-460 -459 0
462 461 0
-462 -461 0
464 463 0
-464 -463 0
466 465 0
-466 -465 0
468 467 0
-468 -467 0
470 469 0
-470 -469 0
472 471 0
-472 -471 0
474 473 0
-474 -473 0
476 475 0
-476 -475 0
478 477 0
-478 -477 0
480 479 0
-480 -479 0
482 481 0
-482 -481 0
484 483 0
-484 -483 0
486 485 0
-486 -485 0
488 487 0
-488 -487 0
490 489 0
-490 -489 0
492 491 0
-492 -491 0
494 493 0
-494 -493 0
496 495 0
-496 -495 0
498 497 0
-498 -497 0
500 499 0
-500 -499 0
502 501 0
-502 -501 0
504 503 0
-504 -503 0
506 505 0
-506 -505 0
508 507 0
-508 -507 0
510 509 0
-510 -509 0
512 511 0
-512 -511 0
514 513 0
-514 -513 0
516 515 0
-516 -515 0
518 517 0
-518 -517 0
520 519 0
-520 -519 0
522 521 0
-522 -521 0
524 523 0
-524 -523 0
526 525 0
-526 -525 0
528 527 0
-528 -527 0
530 529 0
-530 -529 0
532 531 0
-532 -531 0
534 533 0
-534 -533 0
536 535 0
-536 -535 0
538 537 0
-538 -537 0
540 539 0
-540 -539 0
542 541 0
-542 -541 0
544 543 0
-544 -543 0
546 545 0
-546 -545 0
548 547 0
-548 -547 0
550 549 0
-550 -549 0
552 551 0
-552 -551 0
554 553 0
-554 -553 0
556 555 0
-556 -555 0
558 557 0
-558 -557 0
560 559 0
-560 -559 0
562 561 0
-562 -561 0
564 563 0
-564 -563 0
566 565 0
-566 -565 0
568 567 0
-568 -567 0
570 569 0
-570 -569 0
572 571 0
-572 -571 0
574 573 0
-574 -573 0
576 575 0
-576 -575 0
578 577 0
-578 -577 0
580 579 0
-580 -579 0
582 581 0
-582 -581 0
584 583 0
-584 -583 0
586 585 0
-586 -585 0
588 587 0
-588 -587 0
590 589 0
-590 -589 0
592 591 0
-592 -591 0
594 593 0
-594 -593 0
596 595 0
-596 -595 0
598 597 0
-598 -597 0
600 599 0
-600 -599 0
602 601 0
-602 -601 0
604 603 0
-604 -603 0
606 605 0
-606 -605 0
608 607 0
-608 -607 0
610 609 0
-610 -609 0
612 611 0
-612 -611 0
614 613 0
-614 -613 0
616 615 0
-616 -615 0
618 617 0
-618 -617 0
620 619 0
-620 -619 0
622 621 0
-622 -621 0
624 623 0
-624 -623 0
626 625 0
-626 -625 0
628 627 0
-628 -627 0
630 629 0
-630 -629 0
632 631 0
-632 -631 0
634 633 0
-634 -633 0
636 635 0
-636 -635 0
638 637 0
-638 -637 0
640 639 0
-640 -639 0
642 641 0
-642 -641 0
644 643 0
-644 -643 0
646 645 0
-646 -645 0
648 647 0
-648 -647 0
650 649 0
-650 -649 0
652 651 0
-652 -651 0
654 653 0
-654 -653 0
656 655 0
-656 -655 0
658 657 0
-658 -657 0
660 659 0
-660 -659 0
662 661 0
-662 -661 0
664 663 0
-664 -663 0
666 665 0
-666 -665 0
668 667 0
-668 -667 0
670 669 0
-670 -669 0
672 671 0
-672 -671 0
674 673 0
-674 -673 0
676 675 0
-676 -675 0
678 677 0
-678 -677 0
680 679 0
-680 -679 0
682 681 0
-682 -681 0
684 683 0
-684 -683 0
686 685 0
-686 -685 0
688 687 0
-688 -687 0
690 689 0
-690 -689 0
692 691 0
-692 -691 0
694 693 0
-694 -693 0
696 695 0
-696 -695 0
698 697 0
-698 -697 0
700 699 0
-700 -699 0
702 701 0
-702 -701 0
704 703 0
-704 -703 0
706 705 0
-706 -705 0
708 707 0
-708 -707 0
710 709 0
-710 -709 0
712 711 0
-712 -711 0
714 713 0
-714 -713 0
716 715 0
-716 -715 0
718 717 0
-718 -717 0
720 719 0
-720 -719 0
722 721 0
-722 -721 0
724 723 0
-724 -723 0
726 725 0
-726 -725 0
728 727 0
-728 -727 0
730 729 0
-730 -729 0
732 731 0
-732 -731 0
734 733 0
-734 -733 0
736 735 0
-736 -735 0
738 737 0
-738 -737 0
740 739 0
-740 -739 0
742 741 0
-742 -741 0
744 743 0
-744 -743 0
746 745 0
-746 -745 0
748 747 0
-748 -747 0
750 749 0
-750 -749 0
752 751 0
-752 -751 0
754 753 0
-754 -753 0
756 755 0
-756 -755 0
758 757 0
-758 -757 0
760 759 0
-760 -759 0
762 761 0
-762 -761 0
764 763 0
-764 -763 0
766 765 0
-766 -765 0
768 767 0
-768 -767 0
770 769 0
-770 -769 0
772 771 0
-772 -771 0
774 773 0
-774 -773 0
776 775 0
-776 -775 0
778 777 0
-778 -777 0
780 779 0
-780 -779 0
781 -538 0
-781 538 0
782 -626 0
-782 626 0
944 -454 0
-944 454 0
945 -764 0
-945 764 0
946 -616 0
-946 616 0
947 -462 0
-947 462 0
786 -566 0
-786 566 0
787 -544 0
-787 544 0
788 -630 0
-788 630 0
948 -698 0
-948 698 0
790 -538 0
-790 538 0
791 -626 0
-791 626 0
949 -502 0
-949 502 0
950 -508 0
-950 508 0
951 -560 0
-951 560 0
952 -640 0
-952 640 0
796 -746 0
-796 746 0
953 -488 0
-953 488 0
954 -596 0
-954 596 0
798 -704 0
-798 704 0
955 -554 0
-955 554 0
956 -636 0
-956 636 0
957 -570 0
-957 570 0
958 -702 0
-958 702 0
800 -550 0
-800 550 0
801 -634 0
-801 634 0
959 -458 0
-959 458 0
960 -538 0
-960 538 0
803 -638 0
-803 638 0
961 -558 0
-961 558 0
962 -646 0
-962 646 0
806 -564 0
-806 564 0
807 -764 0
-807 764 0
963 -740 0
-963 740 0
964 -708 0
-964 708 0
965 -576 0
-965 576 0
966 -706 0
-966 706 0
812 -626 0
-812 626 0
813 -646 0
-813 646 0
814 -562 0
-814 562 0
967 -504 0
-967 504 0
968 -568 0
-968 568 0
969 -564 0
-969 564 0
970 -466 0
-970 466 0
971 -624 0
-971 624 0
972 -492 0
-972 492 0
820 -702 0
-820 702 0
821 -660 0
-821 660 0
973 -740 0
-973 740 0
822 -646 0
-822 646 0
823 -558 0
-823 558 0
974 -642 0
-974 642 0
975 -724 0
-975 724 0
824 -660 0
-824 660 0
976 -564 0
-976 564 0
826 -660 0
-826 660 0
827 -538 0
-827 538 0
977 -648 0
-977 648 0
978 -568 0
-978 568 0
979 -472 0
-979 472 0
980 -566 0
-980 566 0
981 -498 0
-981 498 0
830 -762 0
-830 762 0
831 -558 0
-831 558 0
832 -566 0
-832 566 0
982 -652 0
-982 652 0
834 -566 0
-834 566 0
983 -574 0
-983 574 0
984 -674 0
-984 674 0
837 -764 0
-837 764 0
838 -746 0
-838 746 0
985 -564 0
-985 564 0
839 -554 0
-839 554 0
840 -746 0
-840 746 0
986 -754 0
-986 754 0
987 -744 0
-987 744 0
988 -736 0
-988 736 0
989 -536 0
-989 536 0
990 -680 0
-990 680 0
844 -622 0
-844 622 0
991 -636 0
-991 636 0
992 -484 0
-992 484 0
993 -740 0
-993 740 0
994 -578 0
-994 578 0
847 -736 0
-847 736 0
995 -482 0
-995 482 0
996 -728 0
-996 728 0
997 -542 0
-997 542 0
849 -752 0
-849 752 0
850 -736 0
-850 736 0
851 -676 0
-851 676 0
998 -494 0
-998 494 0
999 -590 0
-999 590 0
1000 -476 0
-1000 476 0
853 -622 0
-853 622 0
1001 -548 0
-1001 548 0
1002 -646 0
-1002 646 0
1003 -632 0
-1003 632 0
1004 -738 0
-1004 738 0
1005 -500 0
-1005 500 0
858 -538 0
-858 538 0
859 -626 0
-859 626 0
860 -746 0
-860 746 0
861 -626 0
-861 626 0
1006 -572 0
-1006 572 0
1007 -762 0
-1007 762 0
1008 -546 0
-1008 546 0
864 -558 0
-864 558 0
1009 -652 0
-1009 652 0
1010 -580 0
-1010 580 0
866 -646 0
-866 646 0
867 -720 0
-867 720 0
1011 -718 0
-1011 718 0
1012 -474 0
-1012 474 0
1013 -496 0
-1013 496 0
1014 -604 0
-1014 604 0
1015 -716 0
-1015 716 0
869 -454 0
-869 454 0
1016 -470 0
-1016 470 0
1017 -464 0
-1017 464 0
1018 -478 0
-1018 478 0
1019 -722 0
-1019 722 0
871 -764 0
-871 764 0
872 -600 0
-872 600 0
873 -650 0
-873 650 0
874 -642 0
-874 642 0
1020 -652 0
-1020 652 0
876 -730 0
-876 730 0
1021 -564 0
-1021 564 0
1022 -654 0
-1022 654 0
877 -660 0
-877 660 0
1023 -726 0
-1023 726 0
879 -646 0
-879 646 0
1024 -734 0
-1024 734 0
880 -578 0
-880 578 0
1025 -468 0
-1025 468 0
882 -668 0
-882 668 0
883 -538 0
-883 538 0
1026 -604 0
-1026 604 0
1027 -564 0
-1027 564 0
1028 -578 0
-1028 578 0
884 -762 0
-884 762 0
885 -652 0
-885 652 0
1029 -742 0
-1029 742 0
1030 -660 0
-1030 660 0
886 -762 0
-886 762 0
1031 -736 0
-1031 736 0
1032 -732 0
-1032 732 0
1033 -556 0
-1033 556 0
1034 -582 0
-1034 582 0
887 -740 0
-887 740 0
1035 -656 0
-1035 656 0
888 -584 0
-888 584 0
889 -746 0
-889 746 0
890 -668 0
-890 668 0
1036 -594 0
-1036 594 0
1037 -506 0
-1037 506 0
891 -660 0
-891 660 0
1038 -586 0
-1038 586 0
1039 -584 0
-1039 584 0
892 -538 0
-892 538 0
893 -590 0
-893 590 0
1040 -530 0
-1040 530 0
894 -600 0
-894 600 0
1041 -620 0
-1041 620 0
1042 -686 0
-1042 686 0
895 -600 0
-895 600 0
896 -746 0
-896 746 0
1043 -664 0
-1043 664 0
897 -746 0
-897 746 0
1044 -510 0
-1044 510 0
898 -672 0
-898 672 0
1045 -598 0
-1045 598 0
899 -598 0
-899 598 0
900 -676 0
-900 676 0
901 -604 0
-901 604 0
1046 -490 0
-1046 490 0
902 -736 0
-902 736 0
903 -600 0
-903 600 0
1047 -740 0
-1047 740 0
1048 -688 0
-1048 688 0
1049 -676 0
-1049 676 0
1050 -486 0
-1050 486 0
1051 -714 0
-1051 714 0
1052 -652 0
-1052 652 0
1053 -590 0
-1053 590 0
1054 -578 0
-1054 578 0
905 -600 0
-905 600 0
1055 -522 0
-1055 522 0
1056 -602 0
-1056 602 0
1057 -748 0
-1057 748 0
1058 -460 0
-1058 460 0
1059 -534 0
-1059 534 0
906 -600 0
-906 600 0
1060 -776 0
-1060 776 0
907 -700 0
-907 700 0
1061 -604 0
-1061 604 0
908 -746 0
-908 746 0
1062 -540 0
-1062 540 0
1063 -774 0
-1063 774 0
1064 -614 0
-1064 614 0
909 -676 0
-909 676 0
1065 -778 0
-1065 778 0
910 -772 0
-910 772 0
1066 -684 0
-1066 684 0
1067 -588 0
-1067 588 0
1068 -606 0
-1068 606 0
911 -622 0
-911 622 0
1069 -604 0
-1069 604 0
912 -676 0
-912 676 0
913 -676 0
-913 676 0
1070 -712 0
-1070 712 0
1071 -658 0
-1071 658 0
1072 -670 0
-1072 670 0
1073 -590 0
-1073 590 0
1074 -592 0
-1074 592 0
1075 -696 0
-1075 696 0
914 -750 0
-914 750 0
1076 -752 0
-1076 752 0
915 -752 0
-915 752 0
1077 -692 0
-1077 692 0
1078 -754 0
-1078 754 0
1079 -678 0
-1079 678 0
917 -538 0
-917 538 0
1080 -524 0
-1080 524 0
1081 -752 0
-1081 752 0
918 -756 0
-918 756 0
919 -752 0
-919 752 0
1082 -628 0
-1082 628 0
1083 -578 0
-1083 578 0
920 -622 0
-920 622 0
1084 -758 0
-1084 758 0
921 -668 0
-921 668 0
1085 -578 0
-1085 578 0
922 -760 0
-922 760 0
1086 -762 0
-1086 762 0
1087 -626 0
-1087 626 0
924 -626 0
-924 626 0
925 -762 0
-925 762 0
1088 -520 0
-1088 520 0
1089 -526 0
-1089 526 0
926 -676 0
-926 676 0
1090 -772 0
-1090 772 0
1091 -764 0
-1091 764 0
1092 -480 0
-1092 480 0
927 -626 0
-927 626 0
928 -766 0
-928 766 0
1093 -590 0
-1093 590 0
1094 -512 0
-1094 512 0
1095 -644 0
-1095 644 0
1096 -768 0
-1096 768 0
1097 -608 0
-1097 608 0
1098 -666 0
-1098 666 0
1099 -552 0
-1099 552 0
929 -610 0
-929 610 0
930 -676 0
-930 676 0
1100 -516 0
-1100 516 0
1101 -608 0
-1101 608 0
1102 -612 0
-1102 612 0
931 -598 0
-931 598 0
932 -762 0
-932 762 0
933 -626 0
-933 626 0
1103 -622 0
-1103 622 0
934 -514 0
-934 514 0
935 -636 0
-935 636 0
1104 -456 0
-1104 456 0
936 -518 0
-936 518 0
1105 -770 0
-1105 770 0
1106 -514 0
-1106 514 0
1107 -780 0
-1107 780 0
1108 -682 0
-1108 682 0
1109 -694 0
-1109 694 0
937 -764 0
-937 764 0
938 -706 0
-938 706 0
939 -636 0
-939 636 0
1110 -528 0
-1110 528 0
940 -538 0
-940 538 0
1111 -662 0
-1111 662 0
1112 -554 0
-1112 554 0
941 -600 0
-941 600 0
1113 -690 0
-1113 690 0
1114 -700 0
-1114 700 0
942 -622 0
-942 622 0
943 -694 0
-943 694 0
1115 -710 0
-1115 710 0
1116 -532 0
-1116 532 0
1117 -618 0
-1117 618 0
-453 785 0
-455 849 0
-457 844 0
-459 920 0
-461 783 0
-463 840 0
-465 883 0
-467 786 0
-469 868 0
-471 902 0
-473 810 0
-475 926 0
-477 907 0
-479 861 0
-481 838 0
-483 871 0
-485 842 0
-487 859 0
-489 872 0
-491 908 0
-493 932 0
-495 866 0
-497 874 0
-499 921 0
-501 937 0
-503 817 0
-505 879 0
-507 940 0
-509 853 0
-511 924 0
-513 936 0
-515 821 0
-517 843 0
-519 851 0
-521 892 0
-523 824 0
-525 934 0
-527 826 0
-529 941 0
-531 919 0
-533 884 0
-535 833 0
-537 787 0
-539 886 0
-541 834 0
-543 790 0
-545 930 0
-547 860 0
-549 794 0
-551 813 0
-553 800 0
-555 832 0
-557 806 0
-559 781 0
-561 816 0
-563 804 0
-565 880 0
-567 814 0
-569 933 0
-571 784 0
-573 938 0
-575 882 0
-577 819 0
-579 877 0
-581 895 0
-583 815 0
-585 848 0
-587 906 0
-589 894 0
-591 942 0
-593 825 0
-595 802 0
-597 901 0
-599 893 0
-601 903 0
-603 881 0
-605 865 0
-607 929 0
-609 904 0
-611 935 0
-613 939 0
-615 807 0
-617 827 0
-619 899 0
-621 829 0
-623 905 0
-625 788 0
-627 847 0
-629 791 0
-631 0
-633 795 0
-635 801 0
-637 805 0
-639 782 0
-641 873 0
-643 864 0
-645 803 0
-647 841 0
-649 793 0
-651 854 0
-653 822 0
-655 890 0
-657 910 0
-659 885 0
-661 846 0
-663 891 0
-665 888 0
-667 870 0
-669 823 0
-671 900 0
-673 830 0
-675 898 0
-677 831 0
-679 837 0
-681 818 0
-683 850 0
-685 909 0
-687 839 0
-689 857 0
-691 875 0
-693 828 0
-695 812 0
-697 943 0
-699 789 0
-701 798 0
-703 792 0
-705 809 0
-707 811 0
-709 808 0
-711 927 0
-713 796 0
-715 867 0
-717 820 0
-719 835 0
-721 911 0
-723 912 0
-725 876 0
-727 913 0
-729 878 0
-731 852 0
-733 869 0
-735 856 0
-737 917 0
-739 889 0
-741 858 0
-743 896 0
-745 887 0
-747 916 0
-749 836 0
-751 914 0
-753 918 0
-755 863 0
-757 915 0
-759 923 0
-761 922 0
-763 928 0
-765 799 0
-767 925 0
-769 845 0
-771 797 0
-773 862 0
-775 897 0
-777 855 0
-779 931 0
-560 -538 0
-640 -626 0
-462 -454 0
-572 -764 0
-454 -616 0
-454 -462 0
-468 -566 0
-538 -544 0
-626 -630 0
-700 -698 0
-544 -538 0
-630 -626 0
-704 -502 0
-650 -508 0
-550 -560 0
-634 -640 0
-714 -746 0
-550 -488 0
-772 -596 0
-702 -704 0
-550 -554 0
-634 -636 0
-766 -570 0
-704 -702 0
-554 -550 0
-636 -634 0
-462 -458 0
-596 -538 0
-646 -638 0
-564 -558 0
-638 -646 0
-558 -564 0
-616 -764 0
-710 -740 0
-706 -708 0
-474 -576 0
-708 -706 0
-696 -626 0
-552 -646 0
-568 -562 0
-584 -504 0
-562 -568 0
-504 -564 0
-634 -466 0
-682 -624 0
-578 -492 0
-718 -702 0
-516 -660 0
-596 -740 0
-654 -646 0
-670 -558 0
-650 -642 0
-550 -724 0
-524 -660 0
-594 -564 0
-528 -660 0
-618 -538 0
-694 -648 0
-594 -568 0
-650 -472 0
-578 -566 0
-622 -498 0
-674 -762 0
-678 -558 0
-556 -566 0
-536 -652 0
-542 -566 0
-720 -574 0
-750 -674 0
-680 -764 0
-482 -746 0
-572 -564 0
-688 -554 0
-464 -746 0
-648 -754 0
-564 -744 0
-486 -736 0
-694 -536 0
-518 -680 0
-458 -622 0
-770 -636 0
-706 -484 0
-662 -740 0
-504 -578 0
-628 -736 0
-586 -482 0
-634 -728 0
-700 -542 0
-456 -752 0
-684 -736 0
-520 -676 0
-562 -494 0
-710 -590 0
-732 -476 0
-510 -622 0
-652 -548 0
-778 -646 0
-736 -632 0
-766 -738 0
-690 -500 0
-742 -538 0
-488 -626 0
-548 -746 0
-480 -626 0
-584 -572 0
-774 -762 0
-756 -546 0
-644 -558 0
-486 -652 0
-606 -580 0
-496 -646 0
-716 -720 0
-706 -718 0
-470 -474 0
-732 -496 0
-486 -604 0
-720 -716 0
-734 -454 0
-474 -470 0
-668 -464 0
-474 -478 0
-720 -722 0
-484 -764 0
-490 -600 0
-642 -650 0
-498 -642 0
-692 -652 0
-726 -730 0
-778 -564 0
-650 -654 0
-580 -660 0
-730 -726 0
-506 -646 0
-730 -734 0
-566 -578 0
-604 -468 0
-576 -668 0
-466 -538 0
-536 -604 0
-774 -564 0
-594 -578 0
-534 -762 0
-660 -652 0
-732 -742 0
-652 -660 0
-540 -762 0
-732 -736 0
-736 -732 0
-682 -556 0
-652 -582 0
-746 -740 0
-668 -656 0
-666 -584 0
-740 -746 0
-656 -668 0
-584 -594 0
-622 -506 0
-664 -660 0
-584 -586 0
-586 -584 0
-522 -538 0
-600 -590 0
-578 -530 0
-590 -600 0
-470 -620 0
-750 -686 0
-582 -600 0
-744 -746 0
-668 -664 0
-776 -746 0
-668 -510 0
-676 -672 0
-604 -598 0
-620 -598 0
-672 -676 0
-598 -604 0
-700 -490 0
-472 -736 0
-602 -600 0
-770 -740 0
-610 -688 0
-692 -676 0
-694 -486 0
-606 -714 0
-648 -652 0
-596 -590 0
-572 -578 0
-624 -600 0
-638 -522 0
-604 -602 0
-772 -748 0
-708 -460 0
-634 -534 0
-588 -600 0
-604 -776 0
-478 -700 0
-648 -604 0
-492 -746 0
-638 -540 0
-584 -774 0
-550 -614 0
-686 -676 0
-584 -778 0
-658 -772 0
-622 -684 0
-564 -588 0
-622 -606 0
-722 -622 0
-692 -604 0
-724 -676 0
-728 -676 0
-638 -712 0
-470 -658 0
-604 -670 0
-662 -590 0
-730 -592 0
-562 -696 0
-752 -750 0
-750 -752 0
-758 -752 0
-694 -692 0
-756 -754 0
-748 -678 0
-738 -538 0
-564 -524 0
-536 -752 0
-754 -756 0
-532 -752 0
-766 -628 0
-778 -578 0
-460 -622 0
-756 -758 0
-500 -668 0
-774 -578 0
-762 -760 0
-760 -762 0
-504 -626 0
-512 -626 0
-768 -762 0
-760 -520 0
-454 -526 0
-476 -676 0
-748 -772 0
-766 -764 0
-760 -480 0
-712 -626 0
-764 -766 0
-770 -590 0
-750 -512 0
-470 -644 0
-766 -768 0
-662 -608 0
-668 -666 0
-766 -552 0
-608 -610 0
-546 -676 0
-578 -516 0
-610 -608 0
-610 -612 0
-780 -598 0
-494 -762 0
-570 -626 0
-606 -622 0
-526 -514 0
-612 -636 0
-732 -456 0
-514 -518 0
-772 -770 0
-518 -514 0
-748 -780 0
-694 -682 0
-682 -694 0
-502 -764 0
-574 -706 0
-614 -636 0
-586 -528 0
-508 -538 0
-772 -662 0
-710 -554 0
-530 -600 0
-700 -690 0
-690 -700 0
-592 -622 0
-698 -694 0
-772 -710 0
-550 -532 0
-622 -618 0
-1 0
-2 0
-3 0
-4 0
-5 0
-6 0
-7 0
-8 0
-9 0
-10 0
-11 0
-12 0
-13 0
-14 0
-15 0
-16 0
-17 0
-18 0
-19 0
-20 0
-21 0
-22 0
-23 0
-24 0
-25 0
-26 0
-27 0
-28 0
-29 0
-30 0
-31 0
-32 0
-33 0
-34 0
-35 0
-36 0
-37 0
-38 0
-39 0
-40 0
-41 0
-42 0
-43 0
-44 0
-45 0
-46 0
-47 0
-48 0
-49 0
-50 0
-51 0
-52 0
-53 0
-54 0
-55 0
-56 0
-57 0
-58 0
-59 0
-60 0
-61 0
-62 0
-63 0
-64 0
-65 0
-66 0
-67 0
-68 0
-69 0
-70 0
-71 0
-72 0
-73 0
-74 0
-75 0
-76 0
-77 0
-78 0
-79 0
-80 0
-81 0
-82 0
-83 0
-84 0
-85 0
-86 0
-87 0
-88 0
-89 0
-90 0
-91 0
-92 0
-93 0
-94 0
-95 0
-96 0
-97 0
-98 0
-99 0
-100 0
-101 0
-102 0
-103 0
-104 0
-105 0
-106 0
-107 0
-108 0
-109 0
-110 0
-111 0
-112 0
-113 0
-114 0
-115 0
-116 0
-117 0
-118 0
-119 0
-120 0
-121 0
-122 0
-123 0
-124 0
-125 0
-126 0
-127 0
-128 0
-129 0
-130 0
-131 0
-132 0
-133 0
-134 0
-135 0
-136 0
-137 0
-138 0
-139 0
-140 0
-141 0
-142 0
-143 0
-144 0
-145 0
-146 0
-147 0
-148 0
-149 0
-150 0
-151 0
-152 0
-153 0
-154 0
-155 0
-156 0
-157 0
-158 0
-159 0
-160 0
-161 0
-162 0
-163 0
-164 0
-165 0
-166 0
-167 0
-168 0
-169 0
-170 0
-171 0
-172 0
-173 0
-174 0
-175 0
-176 0
-177 0
-178 0
-179 0
-180 0
-181 0
-182 0
-183 0
-184 0
-185 0
-186 0
-187 0
-188 0
-189 0
-190 0
-191 0
-192 0
-193 0
-194 0
-195 0
-196 0
-197 0
-198 0
-199 0
-200 0
-201 0
-202 0
-203 0
-204 0
-205 0
-206 0
-207 0
-208 0
-209 0
-210 0
-211 0
-212 0
-213 0
-214 0
-215 0
-216 0
-217 0
-218 0
-219 0
-220 0
-221 0
-222 0
-223 0
-224 0
-225 0
-226 0
-227 0
-228 0
-229 0
-230 0
-231 0
-232 0
-233 0
-234 0
-235 0
-236 0
-237 0
-238 0
-239 0
-240 0
-241 0
-242 0
-243 0
-244 0
-245 0
-246 0
-247 0
-248 0
-249 0
-250 0
-251 0
-252 0
-253 0
-254 0
-255 0
-256 0
-257 0
-258 0
-259 0
-260 0
-261 0
-262 0
-263 0
-264 0
-265 0
-266 0
-267 0
-268 0
-269 0
-270 0
-271 0
-272 0
-273 0
-274 0
-275 0
-276 0
-277 0
-278 0
-279 0
-280 0
-281 0
-282 0
-283 0
-284 0
-285 0
-286 0
-287 0
-288 0
-289 0
-290 0
-291 0
-292 0
-293 0
-294 0
-295 0
-296 0
-297 0
-298 0
-299 0
-300 0
-301 0
-302 0
-303 0
-304 0
-305 0
-306 0
-307 0
-308 0
-309 0
-310 0
-311 0
-312 0
-313 0
-314 0
-315 0
-316 0
-317 0
-318 0
-319 0
-320 0
-321 0
-322 0
-323 0
-324 0
-325 0
-326 0
-327 0
-328 0
-329 0
-330 0
-331 0
-332 0
-333 0
-334 0
-335 0
-336 0
-337 0
-338 0
-339 0
-340 0
-341 0
-342 0
-343 0
-344 0
-345 0
-346 0
-347 0
-348 0
-349 0
-350 0
-351 0
-352 0
-353 0
-354 0
-355 0
-356 0
-357 0
-358 0
-359 0
-360 0
-361 0
-362 0
-363 0
-364 0
-365 0
-366 0
-367 0
-368 0
-369 0
-370 0
-371 0
-372 0
-373 0
-374 0
-375 0
-376 0
-377 0
-378 0
-379 0
-380 0
-381 0
-382 0
-383 0
-384 0
-385 0
-386 0
-387 0
-388 0
-389 0
-390 0
-391 0
-392 0
-393 0
-394 0
-395 0
-396 0
-397 0
-398 0
-399 0
-400 0
-401 0
-402 0
-403 0
-404 0
-405 0
-406 0
-407 0
-408 0
-409 0
-410 0
-411 0
-412 0
-413 0
-414 0
-415 0
-416 0
-417 0
-418 0
-419 0
-420 0
-421 0
-422 0
-423 0
-424 0
-425 0
-426 0
-427 0
-428 0
-429 0
-430 0
-431 0
-432 0
-433 0
-434 0
-435 0
-436 0
-437 0
-438 0
-439 0
-440 0
-441 0
-442 0
-443 0
-444 0
-445 0
-446 0
-447 0
-448 0
-449 0
-450 0
-451 0
-452 0
-783 944 959 0
783 -944 0
783 -959 0
-784 945 985 1054 0
784 -945 0
784 -985 0
784 -1054 0
-785 946 947 1089 0
785 -946 0
785 -947 0
785 -1089 0
-789 948 997 1046 1113 0
789 -948 0
789 -997 0
789 -1046 0
789 -1113 0
-792 949 958 0
792 -949 0
792 -958 0
-793 950 974 979 1022 0
793 -950 0
793 -974 0
793 -979 0
793 -1022 0
-794 951 953 955 975 1064 1116 0
794 -951 0
794 -953 0
794 -955 0
794 -975 0
794 -1064 0
794 -1116 0
-795 952 956 970 996 1059 0
795 -952 0
795 -956 0
795 -970 0
795 -996 0
795 -1059 0
-797 954 1057 1105 1111 1115 0
797 -954 0
797 -1057 0
797 -1105 0
797 -1111 0
797 -1115 0
-799 957 1004 1082 1091 1096 1099 0
799 -957 0
799 -1004 0
799 -1082 0
799 -1091 0
799 -1096 0
799 -1099 0
-802 960 973 1053 0
802 -960 0
802 -973 0
802 -1053 0
-804 961 987 1067 1080 0
804 -961 0
804 -987 0
804 -1067 0
804 -1080 0
-805 962 1055 1062 1070 0
805 -962 0
805 -1055 0
805 -1062 0
805 -1070 0
-808 963 999 1112 0
808 -963 0
808 -999 0
808 -1112 0
-809 964 992 1011 0
809 -964 0
809 -992 0
809 -1011 0
-810 965 1016 1018 0
810 -965 0
810 -1016 0
810 -1018 0
-811 966 1058 0
811 -966 0
811 -1058 0
-815 967 1006 1036 1038 1063 1065 0
815 -967 0
815 -1006 0
815 -1036 0
815 -1038 0
815 -1063 0
815 -1065 0
-816 968 998 1075 0
816 -968 0
816 -998 0
816 -1075 0
-817 969 994 1087 0
817 -969 0
817 -994 0
817 -1087 0
-818 971 1033 1109 0
818 -971 0
818 -1033 0
818 -1109 0
-819 972 980 1040 1100 0
819 -972 0
819 -980 0
819 -1040 0
819 -1100 0
-825 976 978 1028 0
825 -976 0
825 -978 0
825 -1028 0
-828 977 989 1050 1077 1108 0
828 -977 0
828 -989 0
828 -1050 0
828 -1077 0
828 -1108 0
-829 981 1037 1066 1068 1117 0
829 -981 0
829 -1037 0
829 -1066 0
829 -1068 0
829 -1117 0
-833 982 1026 1081 0
833 -982 0
833 -1026 0
833 -1081 0
-835 983 1015 1019 0
835 -983 0
835 -1015 0
835 -1019 0
-836 984 1042 1076 1094 0
836 -984 0
836 -1042 0
836 -1076 0
836 -1094 0
-841 986 1052 1061 0
841 -986 0
841 -1052 0
841 -1061 0
-842 988 1009 1014 0
842 -988 0
842 -1009 0
842 -1014 0
-843 990 1106 0
843 -990 0
843 -1106 0
-845 991 1047 1093 0
845 -991 0
845 -1047 0
845 -1093 0
-846 993 1073 1097 0
846 -993 0
846 -1073 0
846 -1097 0
-848 995 1039 1110 0
848 -995 0
848 -1039 0
848 -1110 0
-852 1000 1013 1029 1031 1104 0
852 -1000 0
852 -1013 0
852 -1029 0
852 -1031 0
852 -1104 0
-854 1001 1030 1034 0
854 -1001 0
854 -1030 0
854 -1034 0
-855 1002 1021 1083 0
855 -1002 0
855 -1021 0
855 -1083 0
-856 1003 1032 0
856 -1003 0
856 -1032 0
-857 1005 1114 0
857 -1005 0
857 -1114 0
-862 1007 1027 1085 0
862 -1007 0
862 -1027 0
862 -1085 0
-863 1008 1078 1084 0
863 -1008 0
863 -1078 0
863 -1084 0
-865 1010 1051 1103 0
865 -1010 0
865 -1051 0
865 -1103 0
-868 1012 1041 1071 1095 0
868 -1012 0
868 -1041 0
868 -1071 0
868 -1095 0
-870 1017 1035 1043 1044 1098 0
870 -1017 0
870 -1035 0
870 -1043 0
870 -1044 0
870 -1098 0
-875 1020 1049 1069 0
875 -1020 0
875 -1049 0
875 -1069 0
-878 1023 1024 1074 0
878 -1023 0
878 -1024 0
878 -1074 0
-881 1025 1045 1056 1060 1072 0
881 -1025 0
881 -1045 0
881 -1056 0
881 -1060 0
881 -1072 0
-904 1048 1101 1102 0
904 -1048 0
904 -1101 0
904 -1102 0
-916 1079 1090 1107 0
916 -1079 0
916 -1090 0
916 -1107 0
-923 1086 1088 1092 0
923 -1086 0
923 -1088 0
923 -1092 0
